Solver command line: []

Read LP format model from file C:\Users\wlhlm\AppData\Local\Temp\tmp7gp7tnta.pyomo.lp
Reading time = 2.42 seconds
objective: 994224 rows, 875999 columns, 2194326 nonzeros
Set parameter MIPGap to value 0.03
Gurobi Optimizer version 12.0.1 build v12.0.1rc0 (win64 - Windows 11.0 (26100.2))

CPU model: Intel(R) Core(TM) Ultra 7 258V, instruction set [SSE2|AVX|AVX2]
Thread count: 8 physical cores, 8 logical processors, using up to 8 threads

Non-default parameters:
MIPGap  0.03

Optimize a model with 994224 rows, 875999 columns and 2194326 nonzeros
Model fingerprint: 0xc56b5a14
Model has 8759 quadratic constraints
Variable types: 753360 continuous, 122639 integer (105120 binary)
Coefficient statistics:
  Matrix range     [6e-03, 2e+02]
  QMatrix range    [1e+00, 1e+00]
  Objective range  [1e-02, 5e+02]
  Bounds range     [1e+00, 3e+00]
  RHS range        [8e-05, 1e+04]
Presolve removed 794830 rows and 661069 columns
Presolve time: 1.17s
Presolved: 199394 rows, 214930 columns, 631638 nonzeros
Variable types: 142933 continuous, 71997 integer (63238 binary)
Performing another presolve...
Presolve removed 61314 rows and 61315 columns (presolve time = 8s)...
Presolve removed 61314 rows and 61315 columns
Presolve time: 7.82s
Deterministic concurrent LP optimizer: primal and dual simplex
Showing primal log only...


Root simplex log...

Iteration    Objective       Primal Inf.    Dual Inf.      Time
       0    1.2013907e+08   1.133848e+07   3.056583e+13     10s
Concurrent spin time: 0.00s

Solved with dual simplex

Root simplex log...

Iteration    Objective       Primal Inf.    Dual Inf.      Time
   66061    1.1176244e+08   0.000000e+00   0.000000e+00     14s

Root relaxation: objective 1.117624e+08, 66061 iterations, 3.87 seconds (5.27 work units)
Total elapsed time = 13.62s (DegenMoves)

    Nodes    |    Current Node    |     Objective Bounds      |     Work
 Expl Unexpl |  Obj  Depth IntInf | Incumbent    BestBd   Gap | It/Node Time

     0     0 1.1176e+08    0  297          - 1.1176e+08      -     -   15s
     0     0 1.1176e+08    0  330          - 1.1176e+08      -     -   18s
     0     0 1.1176e+08    0  324          - 1.1176e+08      -     -   20s
H    0     0                    1.118015e+08 1.1176e+08  0.03%     -   20s
     0     0 1.1176e+08    0  325 1.1180e+08 1.1176e+08  0.03%     -   20s

Cutting planes:
  Gomory: 145
  Cover: 102
  Implied bound: 51
  MIR: 137
  Flow cover: 178
  Flow path: 5
  RLT: 41
  Relax-and-lift: 152

Explored 1 nodes (75005 simplex iterations) in 20.78 seconds (25.06 work units)
Thread count was 8 (of 8 available processors)

Solution count 1: 1.11801e+08 

Optimal solution found (tolerance 3.00e-02)
Best objective 1.118014626442e+08, best bound 1.117631208336e+08, gap 0.0343%

